language ESSENCE' 1.0

letting jobs = 102
letting horizon = 852
letting resourcesRenew = 2
letting resourcesNonrenew = 2
letting resourceLimits = [14, 14, 276, 270]
letting successors = [[2, 3, 4, 5, 6, 7, 8, 10, 12, 15, 16, 17], [30, 25, 21, 20, 14, 13, 11, 9], [27, 24, 21, 20, 19, 18, 11], [30, 26, 23, 21, 20, 9], [36, 35, 34, 32, 30, 28, 27, 24, 22, 18], [32, 27, 22, 19, 18, 11], [35, 34, 28, 26, 23, 22, 21, 19], [32, 9], [39, 36, 35, 34, 28, 27, 22, 19], [36, 33, 32, 28, 27, 18], [36, 35, 34, 33, 29, 28, 26, 23], [36, 28, 23, 22, 20], [39, 36, 34, 33, 32, 31, 19], [36, 34, 33, 27, 26, 24], [36, 35, 33, 32, 28, 24], [39, 36, 27, 26, 24], [41, 40, 36, 33, 31, 24], [38, 29, 26, 23], [49, 45, 41, 40, 38, 37, 29], [49, 45, 41, 39, 38, 37, 29], [38, 37, 32, 29], [47, 46, 44, 37, 33], [49, 45, 44, 43, 42, 41, 40, 39, 37], [49, 45, 37, 29], [58, 49, 46, 45, 44, 41, 40, 38, 37], [42, 40, 31], [58, 54, 49, 48, 47, 46, 45, 41, 40, 38], [58, 44, 31], [52, 48, 47, 46, 44, 43, 42], [49, 45, 43, 42, 37], [50, 49, 48, 47, 46, 45, 43], [54, 50, 49, 47, 46, 45, 40], [63, 49, 45, 43, 42, 38], [52, 49, 42, 37], [56, 54, 48, 45, 44, 41], [62, 58, 56, 55, 54, 53, 52, 48], [55, 54, 53, 50, 48], [56, 53, 52, 51, 50], [68, 65, 64, 62, 61, 58, 57, 55, 54, 53], [64, 63, 62, 61, 59, 57, 56, 55, 53], [68, 64, 63, 62, 61, 59, 57, 55, 53], [61, 58, 56, 53, 51], [69, 66, 64, 61, 60, 57, 56, 54], [72, 69, 66, 65, 60, 57, 50], [65, 62, 53, 52, 51], [68, 66, 64, 62, 61, 59, 57, 53], [64, 63, 62, 61, 59, 55, 53], [72, 63, 61, 59, 51], [69, 66, 64, 61, 57, 56], [68, 64, 62, 61, 59], [68, 66, 64, 57], [81, 77, 74, 72, 70, 69, 68, 60], [81, 77, 74, 72, 70, 69, 60], [81, 72, 71, 59], [83, 81, 76, 74, 73, 69, 66], [81, 77, 70, 68, 65], [79, 77, 73, 71, 70, 67], [67, 66], [77, 73, 67], [86, 79, 76, 73, 71], [79, 73, 71, 70], [79, 76, 71, 70], [83, 79, 74, 71], [91, 87, 85, 84, 81, 80, 79, 78, 75, 74], [85, 84, 83, 79, 78, 76, 75, 74], [79, 71, 70], [85, 84, 83, 78, 76, 75, 74], [86, 79, 71], [86, 79, 71], [91, 87, 86, 85, 84, 80, 78, 75], [91, 87, 85, 84, 80, 78, 75], [96, 94, 91, 87, 86, 85, 82, 79, 78], [87, 80, 75], [100, 94, 93, 88, 86, 82], [100, 96, 94, 88, 82], [94, 91, 90, 89, 80], [85, 84, 80], [101, 100, 98, 90, 89, 88], [101, 100, 98, 93, 92, 88], [101, 100, 93, 92, 88], [100, 98, 88, 86], [101, 95, 92, 89], [100, 99, 96, 92], [100, 89], [99, 98, 97], [99, 92], [99, 92], [99, 97], [99, 97], [92], [92], [97], [97], [99], [97], [98], [102], [102], [102], [102], [102], []]
letting durations = [[0], [1, 2, 10], [5, 6, 10], [4, 6, 10], [1, 9, 10], [2, 5, 8], [2, 7, 9], [4, 5, 9], [3, 4, 6], [2, 7, 10], [4, 9, 10], [4, 6, 9], [2, 4, 10], [1, 2, 3], [3, 3, 5], [3, 8, 9], [1, 6, 7], [1, 5, 8], [3, 4, 7], [1, 3, 8], [3, 6, 9], [2, 4, 5], [4, 5, 10], [2, 7, 8], [2, 6, 10], [2, 8, 8], [5, 8, 8], [6, 8, 9], [1, 7, 10], [1, 3, 10], [1, 5, 7], [5, 7, 7], [7, 8, 9], [2, 4, 10], [1, 4, 6], [4, 6, 10], [4, 9, 10], [1, 2, 5], [2, 3, 8], [4, 7, 10], [8, 9, 10], [3, 5, 7], [2, 9, 10], [2, 4, 4], [6, 7, 8], [3, 6, 6], [1, 9, 10], [8, 8, 9], [2, 5, 10], [1, 6, 7], [1, 2, 10], [2, 3, 9], [6, 7, 10], [5, 9, 10], [4, 6, 9], [5, 8, 10], [6, 7, 10], [1, 4, 4], [5, 6, 9], [2, 5, 6], [2, 2, 6], [4, 8, 10], [4, 4, 7], [5, 6, 10], [6, 9, 10], [2, 5, 6], [7, 8, 9], [5, 9, 10], [5, 7, 9], [3, 4, 8], [2, 5, 8], [7, 9, 10], [1, 2, 10], [7, 8, 9], [2, 6, 10], [1, 8, 10], [4, 6, 7], [1, 3, 9], [5, 8, 9], [3, 7, 7], [1, 8, 9], [2, 4, 9], [4, 9, 10], [4, 7, 8], [1, 7, 8], [6, 6, 7], [8, 8, 10], [2, 9, 10], [2, 5, 7], [9, 9, 10], [3, 4, 10], [2, 7, 8], [4, 6, 10], [2, 4, 6], [1, 5, 10], [2, 4, 7], [1, 3, 7], [1, 8, 9], [7, 8, 9], [4, 8, 10], [1, 3, 9], [0]]
letting resourceUsage = [[[0, 0, 0, 0]], [[3, 3, 0, 5], [2, 3, 0, 4], [2, 3, 4, 0]], [[3, 4, 8, 0], [3, 2, 6, 0], [1, 2, 0, 3]], [[3, 4, 10, 0], [3, 3, 0, 5], [3, 3, 6, 0]], [[4, 5, 6, 0], [2, 5, 3, 0], [1, 5, 3, 0]], [[3, 3, 0, 7], [3, 3, 0, 4], [3, 3, 0, 3]], [[4, 4, 0, 9], [4, 4, 5, 0], [4, 4, 4, 0]], [[2, 5, 0, 5], [2, 5, 0, 4], [2, 5, 0, 3]], [[5, 3, 5, 0], [3, 3, 5, 0], [2, 3, 0, 7]], [[1, 1, 8, 0], [1, 1, 6, 0], [1, 1, 0, 3]], [[3, 4, 0, 9], [2, 4, 0, 6], [2, 3, 7, 0]], [[5, 4, 0, 9], [5, 2, 0, 8], [5, 1, 0, 8]], [[4, 3, 0, 7], [2, 3, 0, 5], [2, 3, 5, 0]], [[3, 3, 8, 0], [2, 3, 6, 0], [2, 1, 3, 0]], [[4, 4, 0, 9], [4, 2, 6, 0], [4, 2, 5, 0]], [[2, 4, 0, 3], [2, 3, 0, 3], [1, 3, 0, 3]], [[4, 3, 5, 0], [4, 3, 0, 4], [3, 3, 0, 4]], [[3, 4, 4, 0], [3, 3, 3, 0], [3, 2, 0, 7]], [[1, 4, 0, 3], [1, 4, 0, 2], [1, 4, 0, 1]], [[5, 4, 5, 0], [3, 4, 4, 0], [2, 3, 4, 0]], [[3, 2, 3, 0], [1, 1, 3, 0], [1, 1, 0, 3]], [[2, 4, 0, 3], [2, 3, 0, 2], [2, 2, 0, 2]], [[4, 4, 0, 7], [3, 3, 7, 0], [3, 3, 6, 0]], [[4, 4, 3, 0], [3, 4, 2, 0], [2, 3, 0, 6]], [[3, 4, 0, 9], [2, 4, 0, 9], [2, 4, 0, 8]], [[3, 5, 6, 0], [3, 2, 5, 0], [1, 1, 0, 2]], [[5, 4, 6, 0], [4, 4, 5, 0], [4, 3, 0, 9]], [[2, 5, 4, 0], [2, 5, 0, 3], [2, 5, 0, 2]], [[5, 2, 4, 0], [2, 2, 3, 0], [1, 2, 0, 6]], [[5, 4, 0, 8], [2, 4, 0, 6], [2, 4, 0, 3]], [[3, 2, 0, 7], [2, 2, 0, 5], [2, 2, 0, 4]], [[3, 4, 0, 4], [2, 3, 0, 4], [2, 2, 1, 0]], [[5, 5, 4, 0], [3, 5, 0, 7], [2, 5, 0, 5]], [[5, 4, 0, 5], [4, 4, 6, 0], [3, 4, 0, 4]], [[2, 3, 5, 0], [2, 3, 3, 0], [2, 2, 1, 0]], [[3, 3, 8, 0], [2, 2, 0, 2], [1, 1, 0, 2]], [[5, 3, 6, 0], [4, 3, 0, 4], [4, 1, 5, 0]], [[3, 4, 8, 0], [2, 3, 6, 0], [2, 1, 4, 0]], [[4, 4, 4, 0], [3, 2, 4, 0], [2, 2, 0, 1]], [[3, 4, 6, 0], [2, 4, 3, 0], [1, 4, 1, 0]], [[3, 3, 0, 8], [2, 3, 0, 6], [2, 1, 4, 0]], [[4, 2, 0, 6], [4, 2, 0, 5], [4, 2, 1, 0]], [[3, 5, 8, 0], [2, 5, 8, 0], [2, 5, 7, 0]], [[5, 3, 0, 7], [5, 3, 0, 6], [5, 3, 2, 0]], [[5, 4, 3, 0], [5, 3, 0, 4], [5, 2, 0, 4]], [[3, 5, 0, 5], [3, 3, 0, 3], [2, 2, 5, 0]], [[4, 2, 0, 9], [4, 2, 0, 3], [4, 1, 9, 0]], [[2, 4, 0, 10], [1, 3, 5, 0], [1, 3, 0, 9]], [[4, 4, 7, 0], [4, 4, 6, 0], [3, 4, 5, 0]], [[4, 4, 9, 0], [4, 4, 7, 0], [4, 4, 0, 4]], [[1, 4, 8, 0], [1, 3, 0, 8], [1, 3, 8, 0]], [[4, 4, 8, 0], [3, 4, 0, 5], [2, 3, 2, 0]], [[1, 4, 7, 0], [1, 4, 6, 0], [1, 4, 0, 2]], [[4, 5, 9, 0], [4, 4, 0, 1], [4, 2, 8, 0]], [[4, 4, 7, 0], [2, 3, 6, 0], [1, 3, 0, 4]], [[5, 4, 0, 2], [5, 4, 6, 0], [5, 4, 5, 0]], [[1, 2, 8, 0], [1, 1, 6, 0], [1, 1, 0, 6]], [[2, 5, 9, 0], [1, 3, 0, 3], [1, 2, 9, 0]], [[3, 4, 5, 0], [2, 4, 5, 0], [1, 3, 0, 3]], [[3, 4, 7, 0], [3, 3, 5, 0], [3, 1, 3, 0]], [[4, 3, 0, 6], [2, 3, 2, 0], [1, 2, 2, 0]], [[3, 4, 0, 8], [3, 3, 6, 0], [2, 2, 5, 0]], [[2, 3, 9, 0], [2, 3, 0, 8], [1, 2, 0, 7]], [[5, 5, 0, 5], [5, 5, 0, 4], [5, 5, 3, 0]], [[3, 3, 0, 8], [3, 2, 11, 0], [3, 2, 10, 0]], [[4, 1, 8, 0], [4, 1, 0, 3], [2, 1, 0, 2]], [[1, 4, 0, 6], [1, 2, 3, 0], [1, 2, 2, 0]], [[1, 2, 0, 3], [1, 2, 0, 2], [1, 2, 5, 0]], [[4, 4, 0, 9], [3, 3, 4, 0], [1, 3, 4, 0]], [[3, 5, 0, 8], [2, 4, 0, 7], [1, 4, 0, 5]], [[4, 5, 0, 8], [3, 4, 7, 0], [3, 3, 7, 0]], [[1, 5, 0, 8], [1, 4, 0, 9], [1, 4, 0, 8]], [[4, 1, 0, 9], [3, 1, 0, 9], [2, 1, 0, 8]], [[4, 2, 5, 0], [3, 1, 0, 6], [3, 1, 3, 0]], [[1, 3, 7, 0], [1, 2, 7, 0], [1, 2, 0, 7]], [[3, 5, 10, 0], [1, 4, 6, 0], [1, 4, 0, 2]], [[3, 3, 7, 0], [2, 3, 6, 0], [2, 1, 3, 0]], [[4, 3, 0, 2], [4, 2, 7, 0], [4, 2, 0, 2]], [[4, 2, 0, 2], [2, 2, 0, 2], [2, 2, 3, 0]], [[4, 5, 0, 7], [4, 5, 0, 6], [3, 5, 4, 0]], [[4, 2, 0, 1], [2, 2, 0, 2], [2, 2, 0, 1]], [[3, 3, 0, 4], [2, 2, 1, 0], [2, 1, 1, 0]], [[4, 4, 0, 4], [3, 3, 0, 3], [3, 3, 0, 2]], [[4, 3, 9, 0], [3, 3, 6, 0], [3, 2, 4, 0]], [[1, 4, 0, 6], [1, 2, 0, 4], [1, 2, 6, 0]], [[4, 4, 10, 0], [3, 4, 0, 6], [3, 4, 0, 5]], [[4, 4, 0, 8], [4, 3, 8, 0], [4, 2, 0, 5]], [[4, 2, 7, 0], [3, 2, 5, 0], [3, 2, 3, 0]], [[2, 5, 0, 5], [2, 4, 0, 4], [1, 3, 0, 3]], [[4, 3, 2, 0], [3, 3, 0, 3], [1, 2, 0, 3]], [[3, 3, 5, 0], [3, 3, 3, 0], [3, 2, 2, 0]], [[3, 3, 6, 0], [2, 2, 0, 9], [2, 2, 0, 8]], [[4, 1, 0, 10], [4, 1, 0, 5], [4, 1, 0, 4]], [[3, 3, 0, 6], [2, 2, 7, 0], [2, 2, 0, 1]], [[5, 3, 10, 0], [4, 3, 10, 0], [4, 3, 9, 0]], [[5, 2, 7, 0], [3, 2, 0, 3], [2, 2, 7, 0]], [[3, 4, 0, 7], [3, 3, 4, 0], [3, 3, 0, 3]], [[3, 5, 8, 0], [2, 4, 7, 0], [2, 4, 0, 3]], [[2, 2, 5, 0], [2, 1, 5, 0], [2, 1, 4, 0]], [[3, 4, 0, 4], [3, 4, 0, 3], [2, 3, 0, 4]], [[3, 4, 0, 8], [3, 3, 5, 0], [3, 3, 2, 0]], [[0, 0, 0, 0]]]
